(set-logic QF_S)
(set-option :strings-exp true)
(set-option :produce-models true)
(declare-fun sigmaStar_1 () String)
(declare-fun literal_3 () String)
(declare-fun x_2 () String)
(declare-fun epsilon () String)
(declare-fun x_4 () String)
(declare-fun literal_5 () String)
(declare-fun x_6 () String)
(assert (= literal_3 "\x45\x6c\x61\x70\x73\x65\x64\x20\x74\x69\x6d\x65\x20\x62\x65\x74\x77\x65\x65\x6e\x20\x53\x74\x61\x72\x74\x20\x61\x6e\x64\x20\x4d\x61\x72\x6b\x31\x3a\x20"))
(assert (= epsilon ""))
(assert (or (= x_2 epsilon) (= x_2 sigmaStar_1)))
(assert (= x_4 (str.++ literal_3 x_2)))
(assert (= literal_5 "\x5c\x6e"))
(assert (= x_6 (str.++ x_4 literal_5)))
(assert (str.in.re x_6 (re.++ (re.* re.allchar) (re.++ (str.to.re "\x5c\x3c\x53\x43\x52\x49\x50\x54") (re.* re.allchar)))))
(check-sat)
(get-model)
